Route #1: 55 25 8 52 10 24 19
Route #2: 51 9 22 14 3 35 60
Route #3: 46 6 26 31 34 15 27
Route #4: 39 7 28 1 62 17 47
Route #5: 41 40 56 44 59 32
Route #6: 63 23 53 21 18 29
Route #7: 5 45 37 30 50 4 36 49
Route #8: 43 64 54 11 48 57 13 12 33
Route #9: 20 58 61 38 16 2 42
cost 1558.453125